$-------------------------------------------------------------------
$   		          Co-based superalloys.TDB                     $
$                       Co-Al-W-Ni-Ta-Ti                           $
$   	               Last Update: October 20, 2015                  $
$              Database developed by: Peisheng Wang               $
$-------------------------------------------------------------------
$ updated history
$2016-02-03: 
$ 4sl L12_FCC transferred to 2sl
$   The resaon is: The L10 in Al-Ti is desribed using separte model 
$   
$ Assessed the Co-Al-Ni-W system including:
$       Ni-W L12, Al-Ni-W FCC_A1, Co-Ni-W L12, 
$ NOTE: Al-Ni-W literature experimental data may be not accurate.
$ Modify the desription of the Al-Co-W 
$           1, considering Eric Lass's data
$           2, check stability of gamma' at entire temperature range
$ Assessed the Co-Ni-W system
$ Assessed the Al-Ni-W system
$ Revised  the Co-Al-Ni system(gamma+gamma'+BCC_B2) 
$
$2016-01-11: desription of B2 and L12 for Co-W Al-W
$             desription of B2 and L12 for Co-W Al-W
$             CO-Al-W ternary system
$2015-11-17: delete vacancy in the 1st sublattice of FCC_A1
$2015-11-15: modifiy the Bcc_B2 and Al3NI5 phase in Al-Ni system 
$             based on 2001Dupin since G(BCC_A2,VA:VA;0)=30*T
$             
$2015-11-01: G(BCC_A2,VA:VA;0)=30*T,  100*T were used previously
         
$------------------------------------------------------------------------
$                      1  Definition of the elements
$------------------------------------------------------------------------         
 ELEMENT /-   ELECTRON_GAS              0.0000E+00  0.0000E+00  0.0000E+00!
 ELEMENT VA   VACUUM                    0.0000E+00  0.0000E+00  0.0000E+00!
 ELEMENT AL   FCC_A1                    2.6982E+01  4.5773E+03  2.8322E+01!
 ELEMENT CO   HCP_A3                    5.8933E+01  4.7656E+03  3.0040E+01!
 ELEMENT NI   FCC_A1                    5.8690E+01  4.7870E+03  2.9796E+01!
 ELEMENT W    BCC_A2                    1.8385E+02  4.9700E+03  3.2620E+01!
 ELEMENT TA   BCC_A2                    1.8095E+02  5.6819E+03  4.1472E+01!
 ELEMENT TI   HCP_A3                    4.7880E+01  4.8100E+03  3.0648E+01!
 ELEMENT V    BCC_A2                    5.0941E+01  4.5070E+03  3.0890E+01! 
 
$------------------------------------------------------------------------
$                      2  Defined functions  
$------------------------------------------------------------------------   
$------------------------------------------------------------------------   
$------------------- 2.1 Functions for pure elements---------------------
$------------------------------------------------------------------------   
$ All come from SGTE V5.1 
 FUNCTION GHSERAL   298.15 -7976.15+137.093038*T-24.3671976*T*LN(T)
     -.001884662*T**2-8.77664E-07*T**3+74092*T**(-1); 700 Y
      -11276.24+223.048446*T-38.5844296*T*LN(T)+.018531982*T**2
     -5.764227E-06*T**3+74092*T**(-1); 933.60 Y
      -11278.378+188.684153*T-31.748192*T*LN(T)-1.231E+28*T**(-9); 6000 N !
 FUNCTION GLIQAL     2.98140E+02  +11005.029-11.841867*T+7.934E-20*T**7
     +GHSERAL#;  9.33470E+02  Y
      +10482.282-11.253974*T+1.231E+28*T**(-9)+GHSERAL;  6000 N !
 FUNCTION GBCCAL    298.15 +10083-4.813*T+GHSERAL#; 6000 N !
 FUNCTION GHCPAL    298.15 +5481-1.8*T+GHSERAL#; 6000 N !
  
 FUNCTION GHSERCO   298.15 +310.241+133.36601*T-25.0861*T*LN(T)
     -.002654739*T**2-1.7348E-07*T**3+72526.9*T**(-1); 1768 Y
      -17197.666+253.28374*T-40.5*T*LN(T)+9.3488E+30*T**(-9); 6000 N !
 FUNCTION GLIQCO 298.15 +15085.037-8.931932*T
      -2.19801E-21*T**7+GHSERCO#; 1768 Y
      +16351.056-9.683796*T-9.3488E+30*T**(-9)+GHSERCO#; 6000 N REF0 !	  
 FUNCTION GFCCCO    298.15 +427.59-.61525*T+GHSERCO#; 6000 N !
 FUNCTION GBCCCO    298.15 +2938-.7138*T+GHSERCO#; 6000 N !
 
 FUNCTION GHSERNI   298.14 -5179.159+117.854*T-22.096*T*LN(T)-.0048407*T**2; 
     1728 Y
      -27840.655+279.135*T-43.1*T*LN(T)+1.12754E+31*T**(-9); 6000 N !
 FUNCTION GLIQNI     2.98140E+02  +11235.527+108.457*T-22.096*T*LN(T)
     -.0048407*T**2-3.82318E-21*T**7;  1.72830E+03  Y
      -9549.775+268.598*T-43.1*T*LN(T);  6000 N !
 FUNCTION GBCCNI    298.15 +8715.084-3.556*T+GHSERNI#; 6000 N !
 
 FUNCTION GHCPNI    298.15 +1046+1.2552*T+GHSERNI#; 6000 N !
 
 FUNCTION GLIQWW     298.15  +GHSERWW#+52160.584-14.10999*T
     -2.713468E-24*T**7;  3.69500E+03  Y
      -30436.051+375.175*T-54*T*LN(T);  6000  N !
 FUNCTION GFCCWW     298.15  +GHSERWW#+19300+.63*T;   6000   N !
 FUNCTION GHSERWW    298.15  -7646.311+130.4*T-24.1*T*LN(T)
     -.001936*T**2+2.07E-07*T**3+44500*T**(-1)-5.33E-11*T**4;  3.69500E+03  Y
      -82868.801+389.362335*T-54*T*LN(T)+1.528621E+33*T**(-9);  6000  
     N !
 FUNCTION GHCPWW     298.15  +GHSERWW#+14750;   6000   N !
  FUNCTION GLIQTA    298.15 +21875.086+111.561128*T-23.7592624*T*LN(T)
     -.002623033*T**2+1.70109E-07*T**3-3293*T**(-1); 1000 Y
      +43884.339-61.981795*T+.0279523*T*LN(T)-.012330066*T**2
     +6.14599E-07*T**3-3523338*T**(-1); 3290 Y
      -6314.543+258.110873*T-41.84*T*LN(T); 6000 N !
 FUNCTION GFCCTA    298.15 +GHSERTA#+16000+1.7*T; 6000 N !
 FUNCTION GHSERTA   298.15 -7285.889+119.139857*T-23.7592624*T*LN(T)
     -.002623033*T**2+1.70109E-07*T**3-3293*T**(-1); 1300 Y
      -22389.955+243.88676*T-41.137088*T*LN(T)+.006167572*T**2
     -6.55136E-07*T**3+2429586*T**(-1); 2500 Y
      +229382.886-722.59722*T+78.5244752*T*LN(T)-.017983376*T**2
     +1.95033E-07*T**3-93813648*T**(-1); 3290 Y
      -1042384.01+2985.49125*T-362.159132*T*LN(T)+.043117795*T**2
     -1.055148E-06*T**3+5.54714342E+08*T**(-1); 6000 N !
 FUNCTION GHCPTA    298.15 +GHSERTA#+12000+2.4*T; 6000 N !
 FUNCTION GLIQTI    298.15 +4134.494+126.63427*T-23.9933*T*LN(T)
     -.004777975*T**2+1.06716E-07*T**3+72636*T**(-1); 900 Y
      +4382.601+126.00713*T-23.9887*T*LN(T)-.0042033*T**2-9.0876E-08*T**3
     +42680*T**(-1); 1155 Y
      +13103.253+59.9956*T-14.9466*T*LN(T)-.0081465*T**2+2.02715E-07*T**3
     -1477660*T**(-1); 1300 Y
      +369519.198-2554.0225*T+342.059267*T*LN(T)-.163409355*T**2
     +1.2457117E-05*T**3-67034516*T**(-1); 1941 Y
      -19887.066+298.7367*T-46.29*T*LN(T); 4000 N !
 FUNCTION GFCCTI    298.15 +GHSERTI#+6000-.1*T; 4000 N !
 FUNCTION GBCCTI    298.15 -1272.064+134.71418*T-25.5768*T*LN(T)
     -6.63845E-04*T**2-2.78803E-07*T**3+7208*T**(-1); 1155 Y
      +6667.385+105.366379*T-22.3771*T*LN(T)+.00121707*T**2-8.4534E-07*T**3
     -2002750*T**(-1); 1941 Y
      +26483.26-182.426471*T+19.0900905*T*LN(T)-.02200832*T**2
     +1.228863E-06*T**3+1400501*T**(-1); 4000 N !
 FUNCTION GHSERTI   298.15 -8059.921+133.615208*T-23.9933*T*LN(T)
     -.004777975*T**2+1.06716E-07*T**3+72636*T**(-1); 900 Y
      -7811.815+132.988068*T-23.9887*T*LN(T)-.0042033*T**2-9.0876E-08*T**3
     +42680*T**(-1); 1155 Y
      +908.837+66.976538*T-14.9466*T*LN(T)-.0081465*T**2+2.02715E-07*T**3
     -1477660*T**(-1); 1941 Y
      -124526.786+638.806871*T-87.2182461*T*LN(T)+.008204849*T**2
     -3.04747E-07*T**3+36699805*T**(-1); 4000 N !
	 
 FUNCTION GLIQVV    298.15 +GHSERVV#+20764.117-9.455552*T-5.19136E-22*T**7; 
     2183 Y
      -19617.51+311.055983*T-47.43*T*LN(T); 4000 N !
 FUNCTION GFCCVV    298.15 +GHSERVV#+7500+1.7*T; 4000 N !
 FUNCTION GHSERVV   298.15 -7930.43+133.346053*T-24.134*T*LN(T)-.003098*T**2
     +1.2175E-07*T**3+69460*T**(-1); 790 Y
      -7967.842+143.291093*T-25.9*T*LN(T)+6.25E-05*T**2-6.8E-07*T**3; 2183 Y
      -41689.864+321.140783*T-47.43*T*LN(T)+6.44389E+31*T**(-9); 4000 N !
 FUNCTION GHCPVV    298.15 +GHSERVV#+4000+2.4*T; 4000 N !	 
 FUNCTION UN_ASS 298.15 +0; 300 N !
$----------------------2.1 end------------------------------------------- 	 

	 
$------------------------------------------------------------------------   	 
$------------------- 2.2 Functions for order-disorder--------------------  
$------------------------------------------------------------------------   
$     For the ordered L12 phase and the ordered Bcc-B2 phase 

$------------------- 2.2.1 Functions for B2------------------------------

$ FUNCTION B2ALVA    298.15 22893.6; 6000 N !
$ FUNCTION LB2ALVA   298.15 80111.1; 6000 N !
$ FUNCTION B2NIVA    298.15 72335.6; 6000 N !
$ FUNCTION LB2NIVA   298.15 13133.7; 6000 N ! 
$ FUNCTION B2COVA   298.15 160000; 6000 N !
$ FUNCTION LB2COVA   298.15 60000; 6000 N !


$ VA:Element 
$ AL-VA
$ 2001Dupin
$ FUNCTION B2ALVA    298.15 +10000-T; 6000 N !  
$ FUNCTION LB2ALVA   298.15 +150000; 6000 N !
 

 
 
$ FUNCTION UBALVA1  298.15  0.125*B2ALVA#-0.125*LB2ALVA#;   6000   N !
$ FUNCTION UBALVA2  298.15  0;   6000   N !
$ FUNCTION AD03ALVA  298.15  0;   6000   N !
$ FUNCTION AD03VAAL  298.15  0;   6000   N !
$ FUNCTION GD03ALVA  298.15  +2*UBALVA1#+1*UBALVA2#+AD03ALVA#; 6000 N ! 
$ FUNCTION GB2ALVA  298.15  +4*UBALVA1#;   6000   N ! 
$ FUNCTION GB32ALVA  298.15  +2*UBALVA1#+2*UBALVA2#; 6000   N !
$ FUNCTION GD03VAAL  298.15  +2*UBALVA1#+1*UBALVA2#+AD03VAAL#;   6000 N !   
$ CO-VA 
$ 2001Dupin


$ FUNCTION B2COVA   298.15 +148500-35.62*T; 6000 N !
$ FUNCTION LB2COVA   298.15 +45030-34.47*T; 6000 N !
$ FUNCTION UBCOVA1  298.15  0.125*B2COVA#-0.125*LB2COVA#;   6000   N !
$ FUNCTION UBCOVA2  298.15  0;   6000   N !
$ FUNCTION AD03COVA  298.15  0;   6000   N !
$ FUNCTION AD03VACO  298.15  0;   6000   N !
$ FUNCTION GD03COVA  298.15  +2*UBCOVA1#+1*UBCOVA2#+AD03COVA#; 6000 N ! 
$ FUNCTION GB2COVA  298.15  +4*UBCOVA1#;   6000   N ! 
$ FUNCTION GB32COVA  298.15  +2*UBCOVA1#+2*UBCOVA2#; 6000   N !
$ FUNCTION GD03VACO  298.15  +2*UBCOVA1#+1*UBCOVA2#+AD03VACO#;   6000 N !    
$ NI-VA 
$ 2001Dupin
$ FUNCTION B2NIVA    298.15 +162397.3-27.40575*T; 6000 N ! 
$ FUNCTION LB2NIVA   298.15 -64024.38+26.49419*T; 6000 N !
$ FUNCTION UBNIVA1  298.15  0.125*B2NIVA#-0.125*LB2NIVA#;   6000   N !
$ FUNCTION UBNIVA2  298.15  0;   6000   N !
$ FUNCTION AD03NIVA  298.15  0;   6000   N !
$ FUNCTION AD03VANI  298.15  0;   6000   N !
$ FUNCTION GD03NIVA  298.15  +2*UBNIVA1#+1*UBNIVA2#+AD03NIVA#; 6000 N ! 
$ FUNCTION GB2NIVA  298.15  +4*UBNIVA1#;   6000   N ! 
$ FUNCTION GB32NIVA  298.15  +2*UBNIVA1#+2*UBNIVA2#; 6000   N !
$ FUNCTION GD03VANI  298.15  +2*UBNIVA1#+1*UBNIVA2#+AD03VANI#;   6000 N ! 


$ Al-CO B2
$ present work 
 FUNCTION B2ALCO    298.15 -136736.6+28.25753*T; 6000 N !
 FUNCTION LB2ALCO   298.15 40492.9-24.9834*T; 6000 N !
$ FUNCTION B2ALCO 298.15 -1.37779979E+05+2.97907761E+01*T; 6000 N !
$ FUNCTION LB2ALCO 298.15 4.10137515E+04-2.59772720E+01*T; 6000 N ! 
 FUNCTION UBALCO 298.15 0.125*B2ALCO#-0.125*LB2ALCO#; 6000 N !  
 FUNCTION UBALCO1  298.15  0.125*B2ALCO#-0.125*LB2ALCO#;   6000   N !
 FUNCTION UBALCO2  298.15  0;   6000   N !
 FUNCTION AD03ALCO  298.15  0;   6000   N !
 FUNCTION AD03COAL  298.15  0;   6000   N !
 FUNCTION GD03ALCO  298.15  +2*UBALCO1#+1*UBALCO2#+AD03ALCO#; 6000 N ! 
 FUNCTION GB2ALCO  298.15  +4*UBALCO1#;   6000   N ! 
 FUNCTION GB32ALCO  298.15  +2*UBALCO1#+2*UBALCO2#; 6000   N !
 FUNCTION GD03COAL  298.15  +2*UBALCO1#+1*UBALCO2#+AD03COAL#;   6000 N ! 
 FUNCTION TCALCO  298.15  -1400;   6000   N ! 
 FUNCTION BMALCO  298.15  0;   6000   N ! 
 FUNCTION BM0ALCO  298.15  0;   6000   N !  
 FUNCTION L0ALCO  298.15  0;   6000   N !  
 FUNCTION L1ALCO  298.15  0;   6000   N !  
 FUNCTION L2ALCO  298.15  0;   6000   N !   

$AL-Ni B2
$ Present work, modfied based on 2001Dupin
$ since 30*T was used for the G(Bcc_A2,VA;VA;0)
 FUNCTION B2ALNI    298.15 -158665.9+31.1561*T; 6000 N !
 FUNCTION LB2ALNI   298.15 -41189.3+2.4935*T; 6000 N ! 

 FUNCTION UBALNI1  298.15  0.125*B2ALNI#-0.125*LB2ALNI#;   6000   N !
 FUNCTION UBALNI2  298.15  0;   6000   N !
 FUNCTION AD03ALNI  298.15  0;   6000   N !
 FUNCTION AD03NIAL  298.15  0;   6000   N !
 FUNCTION GD03ALNI  298.15  +2*UBALNI1#+1*UBALNI2#+AD03ALNI#; 6000 N ! 
 FUNCTION GB2ALNI  298.15  +4*UBALNI1#;   6000   N ! 
 FUNCTION GB32ALNI  298.15  +2*UBALNI1#+2*UBALNI2#; 6000   N !
 FUNCTION GD03NIAL  298.15  +2*UBALNI1#+1*UBALNI2#+AD03NIAL#;   6000 N !
 
$CO-Ni B2
 FUNCTION UBCONI1   298.15 966-0.416*T; 6000 N !
 FUNCTION UBCONI2   298.15 0; 6000 N !
 FUNCTION AD03CONI  298.15  0;   6000   N !
 FUNCTION AD03NICO  298.15  0;   6000   N !
 FUNCTION GD03CONI  298.15  +2*UBCONI1#+1*UBCONI2#+AD03CONI#; 6000 N ! 
 FUNCTION GB2CONI  298.15  +4*UBCONI1#;   6000   N ! 
 FUNCTION GB32CONI  298.15  +2*UBCONI1#+2*UBCONI2#; 6000   N !
 FUNCTION GD03NICO  298.15  +2*UBCONI1#+1*UBCONI2#+AD03NICO#;   6000 N !  
 
 
$Al-W B2 
 FUNCTION B2ALW    298.15 3000; 6000 N !
 FUNCTION LB2ALW   298.15 1000; 6000 N !
 FUNCTION UBALW    298.15 +.125*B2ALW#-.125*LB2ALW#; 6000 N !
$CO-W B2 
 FUNCTION B2COW    298.15 -2.79999675E+04; 6000 N !
 FUNCTION LB2COW   298.15 1000; 6000 N !
 FUNCTION UBCOW    298.15 +.125*B2COW#-.125*LB2COW#; 6000 N ! 







$AL-CO-Ni  B2
 FUNCTION BALCONI  298.15 -43538; 6000 N !
$ Al-Co-W B2



$------------------- 2.2.2 Functions for L12----------------------------- 
$AL-CO L12
 FUNCTION U1ALCO    298.15 -5198.0; 6000 N !
 FUNCTION ALCO3     298.15 +3*U1ALCO#; 6000 N !
 FUNCTION AL3CO     298.15 +3*U1ALCO#; 6000 N !
 FUNCTION AL2CO2    298.15 +4*U1ALCO#; 6000 N !
 FUNCTION L04ALCO   298.15 +0; 6000 N !
 FUNCTION L14ALCO   298.15 +3023; 6000 N ! 
 FUNCTION U3ALCO    298.15 +L04ALCO#; 6000 N !
 FUNCTION U4ALCO    298.15 +L14ALCO#; 6000 N !
 
$AL-Ni L12
 FUNCTION UNTIER    298.15 +TROIS#**(-1); 6000 N !
 FUNCTION UALNI     298.15 -22212.8931+4.39570389*T; 6000 N !
 FUNCTION TROIS     298.15 +3; 6000 N ! 
 FUNCTION U1ALNI    298.15 +2*UNTIER#*UALNI#; 6000 N !
 FUNCTION ALNI3     298.15 +3*U1ALNI#; 6000 N !
 FUNCTION AL3NI     298.15 +3*U1ALNI#; 6000 N !
 FUNCTION AL2NI2    298.15 +4*U1ALNI#; 6000 N !
 FUNCTION L04ALNI   298.15 +0; 6000 N !
 FUNCTION L14ALNI   298.15 +7203.60609-3.7427303*T; 6000 N !
 FUNCTION U3ALNI    298.15 +L04ALNI#; 6000 N !
 FUNCTION U4ALNI    298.15 +L14ALNI#; 6000 N !
 
$CO-Ni L12
 FUNCTION U1CONI    298.15 +0; 6000 N !
 FUNCTION CONI3     298.15 +3*U1CONI#; 6000 N !
 FUNCTION CO3NI     298.15 +3*U1CONI#; 6000 N !
 FUNCTION CO2NI2    298.15 +4*U1CONI#; 6000 N !
 FUNCTION L04CONI   298.15 +0; 6000 N !
 FUNCTION L14CONI   298.15 +0; 6000 N ! 
 
 


 
$CO-Ti L12 
 FUNCTION U1COTI    298.15 -19600+6.8*T; 6000 N !
 FUNCTION COTI3     298.15 +3*U1COTI#; 6000 N !
 FUNCTION CO3TI     298.15 +3*U1COTI#; 6000 N !
 FUNCTION CO2TI2    298.15 +4*U1COTI#; 6000 N !
 FUNCTION L04COTI   298.15 0; 6000 N !
 FUNCTION L14COTI   298.15 -1000+0.6*T; 6000 N !
 FUNCTION TCU1COTI   298.15 -1046.6667; 6000 N !
 FUNCTION TCCOTI3   298.15 +3*TCU1COTI#; 6000 N ! 
 FUNCTION TCCO3TI   298.15 +3*TCU1COTI#; 6000 N ! 
 FUNCTION TCCO2TI2   298.15 +4*TCU1COTI#; 6000 N ! 

$Ni-W L12
 FUNCTION U1NIW    298.15 -500; 6000 N !
 FUNCTION NIW3     298.15 +3*U1NIW#; 6000 N !
 FUNCTION NI3W     298.15 +3*U1NIW#; 6000 N !
 FUNCTION NI2W2    298.15 +4*U1NIW#; 6000 N !
 FUNCTION L04NIW   298.15 0; 6000 N !
 FUNCTION L14NIW   298.15 0; 6000 N !
 FUNCTION TCU1NIW   298.15 0; 6000 N !
 
 
$Al-W L12
 FUNCTION U1ALW    298.15 0; 6000 N ! 
 FUNCTION AL3W     298.15 +3*U1ALW#; 6000 N !
 FUNCTION AL2W2    298.15 +4*U1ALW#; 6000 N !
 FUNCTION ALW3     298.15 +3*U1ALW#; 6000 N !
 FUNCTION L04ALW   298.15 +0.0; 6000 N !
 FUNCTION L14ALW   298.15 +0; 6000 N !
$Co-W L12 
 FUNCTION U1COW    298.15 -7439.5; 6000 N ! 
 FUNCTION CO3W     298.15 +3*U1COW#; 6000 N !
 FUNCTION CO2W2    298.15 +4*U1COW#; 6000 N !
 FUNCTION COW3     298.15 +3*U1COW#; 6000 N !
 FUNCTION L04COW   298.15 +0.0; 6000 N !
 FUNCTION L14COW   298.15 +0; 6000 N !  

$Ni-Ti L12
 FUNCTION U1NITI 298.15 -8562+4.1*T; 6000 N !
 FUNCTION NI3TI 298.15 3*U1NITI; 6000 N !
 FUNCTION NI2TI2 298.15 4*U1NITI+30466; 6000 N !
 FUNCTION NITI3 298.15 3*U1NITI+32555; 6000 N ! 
 
 FUNCTION L04NITI 298.15 0.0; 6000 N !  
 FUNCTION L14NITI 298.15 -5408; 6000 N !
 
 
$AL-TA L12
 FUNCTION U1ALTA    298.15 3000; 6000 N !
 FUNCTION ALTA3     298.15 +3*U1ALTA#; 6000 N !
 FUNCTION AL3TA     298.15 +3*U1ALTA#; 6000 N !
 FUNCTION AL2TA2    298.15 +4*U1ALTA#; 6000 N !
 FUNCTION L04ALTA   298.15 +0; 6000 N !
 FUNCTION L14ALTA   298.15 0; 6000 N ! 
 FUNCTION U3ALTA    298.15 +L04ALTA#; 6000 N !
 FUNCTION U4ALTA    298.15 +L14ALTA#; 6000 N ! 
 
$AL-TI L12
 FUNCTION U1ALTI    298.15 3570.1253; 6000 N !
 FUNCTION ALTI3     298.15 +3*U1ALTI#; 6000 N !
 FUNCTION AL3TI     298.15 +3*U1ALTI#; 6000 N !
 FUNCTION AL2TI2    298.15 +4*U1ALTI#; 6000 N !
 FUNCTION L04ALTI   298.15 +0; 6000 N !
 FUNCTION L14ALTI   298.15 0; 6000 N ! 
 FUNCTION U3ALTI    298.15 +L04ALTI#; 6000 N !
 FUNCTION U4ALTI    298.15 +L14ALTI#; 6000 N ! 
 
$CO-TA L12
 FUNCTION U1COTA    298.15 -1.34550000E+04; 6000 N !
 FUNCTION COTA3     298.15 +3*U1COTA#; 6000 N !
 FUNCTION CO3TA     298.15 +3*U1COTA#; 6000 N !
 FUNCTION CO2TA2    298.15 +4*U1COTA#; 6000 N !
 FUNCTION L04COTA   298.15 +0; 6000 N !
 FUNCTION L14COTA   298.15 0; 6000 N ! 
 FUNCTION U3COTA    298.15 +L04COTA#; 6000 N !
 FUNCTION U4COTA    298.15 +L14COTA#; 6000 N ! 

$TA-TI L12
 FUNCTION U1TATI    298.15 0; 6000 N !
 FUNCTION TATI3     298.15 +3*U1TATI#; 6000 N !
 FUNCTION TA3TI     298.15 +3*U1TATI#; 6000 N !
 FUNCTION TA2TI2    298.15 +4*U1TATI#; 6000 N !
 FUNCTION L04TATI   298.15 +0; 6000 N !
 FUNCTION L14TATI   298.15 0; 6000 N ! 
 FUNCTION U3TATI    298.15 +L04TATI#; 6000 N !
 FUNCTION U4TATI    298.15 +L14TATI#; 6000 N !  

$TA-W L12
 FUNCTION U1TAW    298.15  -3.66219759E+03; 6000 N !
 FUNCTION TAW3     298.15 +3*U1TAW#; 6000 N !
 FUNCTION TA3W     298.15 +3*U1TAW#; 6000 N !
 FUNCTION TA2W2    298.15 +4*U1TAW#; 6000 N !
 FUNCTION L04TAW   298.15 +0; 6000 N !
 FUNCTION L14TAW   298.15 0; 6000 N ! 
 FUNCTION U3TAW    298.15 +L04TAW#; 6000 N !
 FUNCTION U4TAW    298.15 +L14TAW#; 6000 N !  
$TI-W L12
 FUNCTION U1TIW    298.15 -802.2; 6000 N !
 FUNCTION TIW3     298.15 +3*U1TIW#; 6000 N !
 FUNCTION TI3W     298.15 +3*U1TIW#; 6000 N !
 FUNCTION TI2W2    298.15 +4*U1TIW#; 6000 N !
 FUNCTION L04TIW   298.15 0; 6000 N !
 FUNCTION L14TIW   298.15 0; 6000 N !
 FUNCTION TCU1TIW   298.15 0; 6000 N ! 
$NI-TA L12
 FUNCTION U1NITA    298.15 0; 6000 N !
 FUNCTION NITA3     298.15 +3*U1NITA#; 6000 N !
 FUNCTION NI3TA     298.15 +3*U1NITA#; 6000 N !
 FUNCTION NI2TA2    298.15 +4*U1NITA#; 6000 N !
 FUNCTION L04NITA   298.15 +0; 6000 N !
 FUNCTION L14NITA   298.15 0; 6000 N ! 
 FUNCTION U3NITA    298.15 +L04NITA#; 6000 N !
 FUNCTION U4NITA    298.15 +L14NITA#; 6000 N !  
$Al-Co-W L12
 FUNCTION U1ALCOW 298.15 -4.23187676E+03; 6000 N !
 FUNCTION U2ALCOW 298.15 1.35628692E+04; 6000 N !
 FUNCTION U3ALCOW 298.15 1.99997375E+04; 6000 N !
 FUNCTION ALCOW2 298.15 U1ALCO+2*U1ALW+2*U1COW+U1ALCOW; 6000 N !
 FUNCTION ALCO2W 298.15 2*U1ALCO+U1ALW+2*U1COW+U2ALCOW; 6000 N !
 FUNCTION AL2COW 298.15 2*U1ALCO+2*U1ALW+U1COW+U3ALCOW; 6000 N !
 
$Al-Co-TA L12
 FUNCTION U1ALCOTA 298.15 0; 6000 N !
 FUNCTION U2ALCOTA 298.15 0; 6000 N !
 FUNCTION U3ALCOTA 298.15 0; 6000 N !
 FUNCTION ALCOTA2 298.15 U1ALCO+2*U1ALTA+2*U1COTA+U1ALCOTA; 6000 N !
 FUNCTION ALCO2TA 298.15 2*U1ALCO+U1ALTA+2*U1COTA+U2ALCOTA; 6000 N !
 FUNCTION AL2COTA 298.15 2*U1ALCO+2*U1ALTA+U1COTA+U3ALCOTA; 6000 N !
  
$Al-Co-TI L12
 FUNCTION U1ALCOTI 298.15 0; 6000 N !
 FUNCTION U2ALCOTI 298.15 0; 6000 N !
 FUNCTION U3ALCOTI 298.15 0; 6000 N !
 FUNCTION ALCOTI2 298.15 U1ALCO+2*U1ALTI+2*U1COTI+U1ALCOTI; 6000 N !
 FUNCTION ALCO2TI 298.15 2*U1ALCO+U1ALTI+2*U1COTI+U2ALCOTI; 6000 N !
 FUNCTION AL2COTI 298.15 2*U1ALCO+2*U1ALTI+U1COTI+U3ALCOTI; 6000 N !	 
  
$Al-TI-W L12
 FUNCTION U1ALTIW 298.15 0; 6000 N !
 FUNCTION U2ALTIW 298.15 0; 6000 N !
 FUNCTION U3ALTIW 298.15 0; 6000 N !
 FUNCTION ALTIW2 298.15 U1ALTI+2*U1ALW+2*U1TIW+U1ALTIW; 6000 N !
 FUNCTION ALTI2W 298.15 2*U1ALTI+U1ALW+2*U1TIW+U2ALTIW; 6000 N !
 FUNCTION AL2TIW 298.15 2*U1ALTI+2*U1ALW+U1TIW+U3ALTIW; 6000 N ! 

 
$Al-NI-W L12
 FUNCTION U1ALNIW 298.15 -7650.8; 6000 N !
 FUNCTION U2ALNIW 298.15 22217.1; 6000 N !
 FUNCTION U3ALNIW 298.15 0; 6000 N !
 FUNCTION ALNIW2 298.15 U1ALNI+2*U1ALW+2*U1NIW+U1ALNIW; 6000 N !
 FUNCTION ALNI2W 298.15 2*U1ALNI+U1ALW+2*U1NIW+U2ALNIW; 6000 N !
 FUNCTION AL2NIW 298.15 2*U1ALNI+2*U1ALW+U1NIW+U3ALNIW; 6000 N ! 
 
 
$Al-TA-W L12
 FUNCTION U1ALTAW 298.15 0; 6000 N !
 FUNCTION U2ALTAW 298.15 0; 6000 N !
 FUNCTION U3ALTAW 298.15 0; 6000 N !
 FUNCTION ALTAW2 298.15 U1ALTA+2*U1ALW+2*U1TAW+U1ALTAW; 6000 N !
 FUNCTION ALTA2W 298.15 2*U1ALTA+U1ALW+2*U1TAW+U2ALTAW; 6000 N !
 FUNCTION AL2TAW 298.15 2*U1ALTA+2*U1ALW+U1TAW+U3ALTAW; 6000 N ! 
  
 
$Al-Co-Ni L12
 FUNCTION U1ALCONI 298.15 0; 6000 N !
 FUNCTION U2ALCONI 298.15 0; 6000 N !
 FUNCTION U3ALCONI 298.15 0; 6000 N !
 FUNCTION ALCONI2 298.15 U1ALCO+2*U1ALNI+2*U1CONI+U1ALCONI; 6000 N !
 FUNCTION ALCO2NI 298.15 2*U1ALCO+U1ALNI+2*U1CONI+U2ALCONI; 6000 N !
 FUNCTION AL2CONI 298.15 2*U1ALCO+2*U1ALNI+U1CONI+U3ALCONI; 6000 N !
 
$CO-Ni-W L12
 FUNCTION U1CONIW 298.15 6000; 6000 N !
 FUNCTION U2CONIW 298.15  -4978.8; 6000 N !
 FUNCTION U3CONIW 298.15  -1996.10; 6000 N !
 FUNCTION CONIW2 298.15 U1CONI+2*U1COW+2*U1NIW+U1CONIW; 6000 N !
 FUNCTION CONI2W 298.15 2*U1CONI+U1COW+2*U1NIW+U2CONIW; 6000 N !
 FUNCTION CO2NIW 298.15 2*U1CONI+2*U1COW+U1NIW+U3CONIW; 6000 N !  
 
$CO-TA-W L12
 FUNCTION U1COTAW 298.15 0; 6000 N !
 FUNCTION U2COTAW 298.15  0; 6000 N !
 FUNCTION U3COTAW 298.15  0; 6000 N !
 FUNCTION COTAW2 298.15 U1COTA+2*U1COW+2*U1TAW+U1COTAW; 6000 N !
 FUNCTION COTA2W 298.15 2*U1COTA+U1COW+2*U1TAW+U2COTAW; 6000 N !
 FUNCTION CO2TAW 298.15 2*U1COTA+2*U1COW+U1TAW+U3COTAW; 6000 N !   
 
$CO-TI-W L12
 FUNCTION U1COTIW 298.15 0; 6000 N !
 FUNCTION U2COTIW 298.15 0; 6000 N !
 FUNCTION U3COTIW 298.15 0; 6000 N !
 FUNCTION COTIW2 298.15 U1COTI+2*U1COW+2*U1TIW+U1COTIW; 6000 N !
 FUNCTION COTI2W 298.15 2*U1COTI+U1COW+2*U1TIW+U2COTIW; 6000 N !
 FUNCTION CO2TIW 298.15 2*U1COTI+2*U1COW+U1TIW+U3COTIW; 6000 N !  
 
$CO-AL-W-NI L12 
 FUNCTION UALCONIW 298.15 0; 6000 N !
 FUNCTION ALCONIW 298.15 
     U1ALCO+U1ALNI+U1ALW+U1CONI+U1COW+U1NIW+UALCONIW; 6000 N !
 
 
$CO-AL-W-TA L12 
 FUNCTION UALCOTAW 298.15 0; 6000 N !
 FUNCTION ALCOTAW 298.15 
     U1ALCO+U1ALTA+U1ALW+U1COTA+U1COW+U1TAW+UALCOTAW; 6000 N ! 
 
$CO-AL-W-TI L12 
 FUNCTION UALCOTIW 298.15 0; 6000 N !
 FUNCTION ALCOTIW 298.15 
     U1ALCO+U1ALTI+U1ALW+U1COTI+U1COW+U1TIW+UALCOTIW; 6000 N !  
 
$----------------------2.2 end------------------------------------------- 	 
$----------------------2 end--------------------------------------------- 	 
 
 
 
$------------------------------------------------------------------------   	 
$------------------- 3 TYPE DEFINITION----------------------------------- 
$------------------------------------------------------------------------ 
 
 TYPE_DEFINITION & GES A_P_D BCC_A2 MAGNETIC  -1.0    4.00000E-01 !
 TYPE_DEFINITION ' GES AMEND_PHASE_DESCRIPTION BCC_B2 DIS_PART BCC_A2,,,!
 TYPE_DEFINITION ( GES A_P_D BCC_B2 MAGNETIC  -1.0    4.00000E-01 !
 TYPE_DEFINITION ) GES A_P_D FCC_A1 MAGNETIC  -3.0    2.80000E-01 !
 TYPE_DEFINITION + GES AMEND_PHASE_DESCRIPTION L12_FCC DIS_PART FCC_A1,,,!
 TYPE_DEFINITION - GES A_P_D L12_FCC MAGNETIC  -3.0    2.80000E-01 !
 TYPE_DEFINITION * GES A_P_D HCP_A3 MAGNETIC  -3.0    2.80000E-01 !
 
 TYPE_DEFINITION % SEQ *!
 DEFINE_SYSTEM_DEFAULT ELEMENT 2 !
 DEFAULT_COMMAND DEF_SYS_ELEMENT VA /- !
$----------------------3 end--------------------------------------------- 	 
 
 

$------------------------------------------------------------------------   	 
$------------------- 4 Phase models--------------------------------------  
$------------------------------------------------------------------------ 

$------------------------------------------------------------------------   
$------------------- 4.1 Solution phases---------------------------------
$------------------------------------------------------------------------  

 PHASE LIQUID %  1  1.0  !
 CONSTITUENT LIQUID :AL,CO,NI,TA,TI,V,W :  !
   
 PHASE BCC_A2  %&  2 1   3 !
 CONSTITUENT BCC_A2  :AL,CO,NI,TA,TI,V,W,VA : VA :  !  
 
 PHASE FCC_A1  %)  2 1   1 !
 CONSTITUENT FCC_A1  :AL,CO,NI,TA,TI,W,V: VA% :  !
 
 PHASE HCP_A3  %*  2 1   .5 !
   CONSTITUENT HCP_A3  :AL,CO,NI,TA,TI,V,W: VA% :  !
   
 
$------------------------------------------------------------------------   
$------------------- 4.2 B2 and L12-------------------------------------- 
$------------------------------------------------------------------------  

 
 PHASE BCC_B2  %'(  3 .5   .5   3 !
   CONSTITUENT BCC_B2 :AL,CO,NI,TA,TI,W,VA : AL,CO,NI,TA,TI,W,VA: VA: !
 

 PHASE L12_FCC  %+-  3 0.75 0.25 1 ! !
   CONSTITUENT L12_FCC :AL,CO,NI,TA,TI,W : AL,CO,NI,TA,TI,W :  VA: !  
					  

$------------------------------------------------------------------------   
$------------------- 4.3 Compounds---------------------------------------
$------------------------------------------------------------------------  

 PHASE AL9CO2 % 2 9 2 ! 
   CONSTITUENT AL9CO2  :AL : CO :  !
 
 PHASE AL13CO4 % 2 13 4 !
   CONSTITUENT AL13CO4  :AL : CO :  !
 
 PHASE AL3CO % 2 3 1 !
   CONSTITUENT AL3CO  :AL : CO :  !
 
 PHASE AL5CO2 % 2 5 2 !
   CONSTITUENT AL5CO2  :AL : CO :  !
 
 PHASE AL3NI1  %  2 .75   .25 !
   CONSTITUENT AL3NI1  :AL : NI :  !
 
 PHASE AL3NI2  %  3 3   2   1 !
   CONSTITUENT AL3NI2  :AL : AL,NI% : NI,VA% :  !
 
 PHASE AL3NI5  %  2 .375   .625 !
   CONSTITUENT AL3NI5  :AL : NI :  !
 
 PHASE ETA_AL2TI  %  2 2   1 !
   CONSTITUENT ETA_AL2TI  :AL,TA,TI : AL,TA,TI :  !   

 PHASE EPSILON_L  %  2 3   1 !
   CONSTITUENT EPSILON_L  :AL,TI : AL,TA,TI :  !   
 PHASE ZETA_AL5TI2  %  2 5   2 !
   CONSTITUENT ZETA_AL5TI2  :AL,TA,TI : AL,TA,TI :  !  
 PHASE AL5TI3  %  2 5   3 !
   CONSTITUENT AL5TI3  :AL : TA,TI :  !   
 PHASE KAPPA  %  2 .6389   .3611 !
   CONSTITUENT KAPPA  :AL,TA,TI : AL,TA,TI :  !  
 
 
 PHASE AL12W  %  2 12   1 !
   CONSTITUENT AL12W  :AL : W :  !
 
 PHASE AL2W  %  2 2   1 !
   CONSTITUENT AL2W  :AL : W :  !
 
 PHASE AL4W  %  2 4   1 !
   CONSTITUENT AL4W  :AL : W :  ! 
 
 PHASE AL5W  %  2 5   1 !
   CONSTITUENT AL5W  :AL : W :  !
 
 PHASE AL77W23  %  2 77   23 !
   CONSTITUENT AL77W23  :AL : W :  !
 
 PHASE AL7W3  %  2 7   3 !
   CONSTITUENT AL7W3  :AL : W :  !
  
 PHASE CO7TA2  %  2 .7778   .2222 !
   CONSTITUENT CO7TA2  :CO : TA,W :  !  
  
 PHASE COTI2  %  2 .3333   .6667 !
    CONSTITUENT COTI2  :CO : TI :  !

 PHASE NI2TA % 2 .666667 .333333 !
   CONSTITUENT NI2TA :NI,TA : NI,TA : !

 PHASE NI8TA % 2 .8889 .1111 !
   CONSTITUENT NI8TA :NI : TA : !  

 PHASE PT3TA % 2 .75 .25 !
   CONSTITUENT PT3TA :NI,TA : NI,TA : !
 
	
 PHASE NI4W  %  2 4   1 !
   CONSTITUENT NI4W  :NI : W :  !
 PHASE NIW  %  2 1   1 !
   CONSTITUENT NIW  :NI : W :  !	
 PHASE NIW2  %  2 1   2 !
   CONSTITUENT NIW2  :NI : W :  !	 	
 
 
 PHASE DOa % 2 .75 .25 !
   CONSTITUENT DOa :NI,TA : NI,TA : ! 
 PHASE PHI_ALTA  %  2 .8837   1.1163 !
    CONSTITUENT PHI_ALTA  :AL,TA,TI : AL,TA,TI :  !   
   
   
   
   
   
 PHASE CHI  %  2 0.75  0.25   !
   CONSTITUENT CHI  :CO,NI : W,AL,CO,NI,TA,TI :  !  
   
   
   

   
   
   
   
   
 
 
 PHASE MU % 4 1 4 2 6 !
   CONSTITUENT MU :AL,CO,NI,TA,W: CO,TA,W : CO,NI,TA,W : AL,CO,NI,TA,W : !	
	
 PHASE DO22 % 2 .75 .25 !
   CONSTITUENT DO22 :NI,AL,TI : AL,TA%,TI : !	
	  
   
	
	
	
 PHASE C15_LAVES  %  2 2   1 !
   CONSTITUENT C15_LAVES  :CO,TA,TI : CO,TA,TI :  !	
$$	
 PHASE C36_LAVES  %  3  8   4  12 !
   CONSTITUENT C36_LAVES  :CO,TA,TI : CO,TA,TI : CO,TA,TI: !

 PHASE C16_MXTA2 % 2 .333333 .666667 !
   CONSTITUENT C16_MXTA2 :CO,NI,TA : CO,NI,TA : !  
   
 PHASE SIGMA % 3 0.533 0.333 0.134 !
   CONSTITUENT SIGMA :AL,TA,TI: AL,TA,TI: TA,TI : !
 
 PHASE C14_LAVES  %  3 4   2   6 !
   CONSTITUENT C14_LAVES  :CO,TA : CO,TA : CO,TA :  !
   
$------------------------------------------------------------------------   	 
$------------------- 5 Description for "pure"---------------------------- 
$------------------------------------------------------------------------ 
   
$------------------- 5.1 LIQUID------------------------------------------
$------------------------------------------------------------------------   
$ LIQUID     
   PARAMETER G(LIQUID,AL;0) 298.15 +GLIQAL#; 6000 N REF0 !
   PARAMETER G(LIQUID,CO;0) 298.15 +GLIQCO#; 6000 N REF0 !
   PARAMETER G(LIQUID,NI;0) 298.15 +GLIQNI#; 6000 N REF0 !
   PARAMETER G(LIQUID,W;0) 298.15 +GLIQWW#; 6000 N REF0 !
   PARAMETER G(LIQUID,TA;0) 298.15 +GLIQTA#; 6000 N REF0 !
   PARAMETER G(LIQUID,TI;0) 298.15 +GLIQTI#; 6000 N REF0 !   
   PARAMETER G(LIQUID,V;0)  298.15 +GLIQVV#; 4000 N REF3 !   
$------------------- 5.2 Bcc_A2------------------------------------------
$------------------------------------------------------------------------   
$$$$$$$$$$$$$$$$$$$$$$$$$$$$$$$$$$$$$$$$$$$$$$$$$$$$$$$$$$$$$$$$$$$$ 
   PARAMETER G(BCC_A2,VA:VA;0) 298.15 30*T; 6000 N! 
$$$$$$$$$$$$$$$$$$$$$$$$$$$$$$$$$$$$$$$$$$$$$$$$$$$$$$$$$$$$$$$$$$$$  

   PARAMETER G(BCC_A2,AL:VA;0)            298.15 +GBCCAL#; 6000 N REF3 !
   PARAMETER G(BCC_A2,CO:VA;0)            298.15 +GBCCCO#; 6000 N REF3 !
   PARAMETER TC(BCC_A2,CO:VA;0)           298.15 +1450; 6000 N REF3 !
   PARAMETER BMAGN(BCC_A2,CO:VA;0)        298.15 +1.35; 6000 N REF3 !
   PARAMETER G(BCC_A2,NI:VA;0)            298.15 +GBCCNI#; 6000 N REF3 !
   PARAMETER TC(BCC_A2,NI:VA;0)           298.15 +575; 6000 N REF2 !
   PARAMETER BMAGN(BCC_A2,NI:VA;0)        298.15 +.85; 6000 N REF2 !
   PARAMETER G(BCC_A2,TA:VA;0)            298.15 +GHSERTA#; 6000 N REF1 !
   PARAMETER G(BCC_A2,TI:VA;0)            298.15 +GBCCTI#; 4000 N REF3 !     
   PARAMETER G(BCC_A2,W:VA;0)  298.15  +GHSERWW#;   6000   N !     