
$ Database file written 1900- 1-**
$ From database: USER                    
 ELEMENT /-   ELECTRON_GAS              0.0000E+00  0.0000E+00  0.0000E+00!
 ELEMENT VA   VACUUM                    0.0000E+00  0.0000E+00  0.0000E+00!
 ELEMENT AL   FCC_A1                    2.6982E+01  4.5773E+03  2.8322E+01!
 ELEMENT CO   HCP_A3                    5.8933E+01  4.7656E+03  3.0040E+01!
 ELEMENT NI   FCC_A1                    5.8690E+01  4.7870E+03  2.9796E+01!
 ELEMENT TA   BCC_A2                    1.8095E+02  5.6819E+03  4.1472E+01!
 ELEMENT TI   HCP_A3                    4.7880E+01  4.8100E+03  3.0648E+01!
 ELEMENT V    BCC_A2                    5.0941E+01  4.5070E+03  3.0890E+01!
 ELEMENT W    BCC_A2                    1.8385E+02  4.9700E+03  3.2620E+01!
 
 
 FUNCTION GLIQAL    298.14 +11005.029-11.841867*T+7.934E-20*T**7+GHSERAL#; 
     933.47 Y
      +10482.282-11.253974*T+1.231E+28*T**(-9)+GHSERAL#; 6000 N !
 FUNCTION GLIQCO    298.15 +15085.037-8.931932*T-2.19801E-21*T**7+GHSERCO#; 
     1768 Y
      +16351.056-9.683796*T-9.3488E+30*T**(-9)+GHSERCO#; 6000 N !
 FUNCTION GLIQNI    298.14 +11235.527+108.457*T-22.096*T*LN(T)-.0048407*T**2
     -3.82318E-21*T**7; 1728.30 Y
      -9549.775+268.598*T-43.1*T*LN(T); 6000 N !
 FUNCTION GLIQWW    298.15 +GHSERWW#+52160.584-14.10999*T-2.713468E-24*T**7; 
     3695 Y
      -30436.051+375.175*T-54*T*LN(T); 6000 N !
 FUNCTION GLIQTA    298.15 +21875.086+111.561128*T-23.7592624*T*LN(T)
     -.002623033*T**2+1.70109E-07*T**3-3293*T**(-1); 1000 Y
      +43884.339-61.981795*T+.0279523*T*LN(T)-.012330066*T**2
     +6.14599E-07*T**3-3523338*T**(-1); 3290 Y
      -6314.543+258.110873*T-41.84*T*LN(T); 6000 N !
 FUNCTION GLIQTI    298.15 +4134.494+126.63427*T-23.9933*T*LN(T)
     -.004777975*T**2+1.06716E-07*T**3+72636*T**(-1); 900 Y
      +4382.601+126.00713*T-23.9887*T*LN(T)-.0042033*T**2-9.0876E-08*T**3
     +42680*T**(-1); 1155 Y
      +13103.253+59.9956*T-14.9466*T*LN(T)-.0081465*T**2+2.02715E-07*T**3
     -1477660*T**(-1); 1300 Y
      +369519.198-2554.0225*T+342.059267*T*LN(T)-.163409355*T**2
     +1.2457117E-05*T**3-67034516*T**(-1); 1941 Y
      -19887.066+298.7367*T-46.29*T*LN(T); 4000 N !
 FUNCTION GLIQVV    298.15 +GHSERVV#+20764.117-9.455552*T-5.19136E-22*T**7; 
     2183 Y
      -19617.51+311.055983*T-47.43*T*LN(T); 4000 N !
 FUNCTION GBCCAL    298.15 +10083-4.813*T+GHSERAL#; 6000 N !
 FUNCTION GBCCCO    298.15 +2938-.7138*T+GHSERCO#; 6000 N !
 FUNCTION GBCCNI    298.15 +8715.084-3.556*T+GHSERNI#; 6000 N !
 FUNCTION GHSERTA   298.15 -7285.889+119.139857*T-23.7592624*T*LN(T)
     -.002623033*T**2+1.70109E-07*T**3-3293*T**(-1); 1300 Y
      -22389.955+243.88676*T-41.137088*T*LN(T)+.006167572*T**2
     -6.55136E-07*T**3+2429586*T**(-1); 2500 Y
      +229382.886-722.59722*T+78.5244752*T*LN(T)-.017983376*T**2
     +1.95033E-07*T**3-93813648*T**(-1); 3290 Y
      -1042384.01+2985.49125*T-362.159132*T*LN(T)+.043117795*T**2
     -1.055148E-06*T**3+5.54714342E+08*T**(-1); 6000 N !
 FUNCTION GBCCTI    298.15 -1272.064+134.71418*T-25.5768*T*LN(T)
     -6.63845E-04*T**2-2.78803E-07*T**3+7208*T**(-1); 1155 Y
      +6667.385+105.366379*T-22.3771*T*LN(T)+.00121707*T**2-8.4534E-07*T**3
     -2002750*T**(-1); 1941 Y
      +26483.26-182.426471*T+19.0900905*T*LN(T)-.02200832*T**2
     +1.228863E-06*T**3+1400501*T**(-1); 4000 N !
 FUNCTION GHSERWW   298.15 -7646.311+130.4*T-24.1*T*LN(T)-.001936*T**2
     +2.07E-07*T**3+44500*T**(-1)-5.33E-11*T**4; 3695 Y
      -82868.801+389.362335*T-54*T*LN(T)+1.528621E+33*T**(-9); 6000 N !
 FUNCTION GHSERVV   298.15 -7930.43+133.346053*T-24.134*T*LN(T)-.003098*T**2
     +1.2175E-07*T**3+69460*T**(-1); 790 Y
      -7967.842+143.291093*T-25.9*T*LN(T)+6.25E-05*T**2-6.8E-07*T**3; 2183 Y
      -41689.864+321.140783*T-47.43*T*LN(T)+6.44389E+31*T**(-9); 4000 N !
 FUNCTION GHSERAL   298.15 -7976.15+137.093038*T-24.3671976*T*LN(T)
     -.001884662*T**2-8.77664E-07*T**3+74092*T**(-1); 700 Y
      -11276.24+223.048446*T-38.5844296*T*LN(T)+.018531982*T**2
     -5.764227E-06*T**3+74092*T**(-1); 933.60 Y
      -11278.378+188.684153*T-31.748192*T*LN(T)-1.231E+28*T**(-9); 6000 N !
 FUNCTION GFCCCO    298.15 +427.59-.61525*T+GHSERCO#; 6000 N !
 FUNCTION GHSERNI   298.14 -5179.159+117.854*T-22.096*T*LN(T)-.0048407*T**2; 
     1728 Y
      -27840.655+279.135*T-43.1*T*LN(T)+1.12754E+31*T**(-9); 6000 N !
 FUNCTION GFCCTA    298.15 +GHSERTA#+16000+1.7*T; 6000 N !
 FUNCTION GFCCTI    298.15 +GHSERTI#+6000-.1*T; 4000 N !
 FUNCTION GFCCWW    298.15 +GHSERWW#+19300+.63*T; 6000 N !
 FUNCTION GFCCVV    298.15 +GHSERVV#+7500+1.7*T; 4000 N !
 FUNCTION GHCPAL    298.15 +5481-1.8*T+GHSERAL#; 6000 N !
 FUNCTION GHSERCO   298.15 +310.241+133.36601*T-25.0861*T*LN(T)
     -.002654739*T**2-1.7348E-07*T**3+72526.9*T**(-1); 1768 Y
      -17197.666+253.28374*T-40.5*T*LN(T)+9.3488E+30*T**(-9); 6000 N !
 FUNCTION GHCPNI    298.15 +1046+1.2552*T+GHSERNI#; 6000 N !
 FUNCTION GHCPTA    298.15 +GHSERTA#+12000+2.4*T; 6000 N !
 FUNCTION GHSERTI   298.15 -8059.921+133.615208*T-23.9933*T*LN(T)
     -.004777975*T**2+1.06716E-07*T**3+72636*T**(-1); 900 Y
      -7811.815+132.988068*T-23.9887*T*LN(T)-.0042033*T**2-9.0876E-08*T**3
     +42680*T**(-1); 1155 Y
      +908.837+66.976538*T-14.9466*T*LN(T)-.0081465*T**2+2.02715E-07*T**3
     -1477660*T**(-1); 1941 Y
      -124526.786+638.806871*T-87.2182461*T*LN(T)+.008204849*T**2
     -3.04747E-07*T**3+36699805*T**(-1); 4000 N !
 FUNCTION GHCPWW    298.15 +GHSERWW#+14750; 6000 N !
 FUNCTION GHCPVV    298.15 +GHSERVV#+4000+2.4*T; 4000 N !
 FUNCTION B2ALCO    298.15 -136736.6+28.25753*T; 6000 N !
 FUNCTION LB2ALCO   298.15 +40492.9-24.9834*T; 6000 N !
 FUNCTION UBALCO    298.15 +.125*B2ALCO#-.125*LB2ALCO#; 6000 N !
 FUNCTION U1ALCO    298.15 -5198; 6000 N !
 FUNCTION L14ALCO   298.15 +3023; 6000 N !
 FUNCTION L04ALCO   298.15 +0.0; 6000 N !
 FUNCTION B2ALNI    298.15 -158665.9+31.1561*T; 6000 N !
 FUNCTION LB2ALNI   298.15 -41189.3+2.4935*T; 6000 N !
 FUNCTION GB2ALNI   298.15 +4*UBALNI1#; 6000 N !
 FUNCTION U1ALNI    298.15 +2*UNTIER#*UALNI#; 6000 N !
 FUNCTION L14ALNI   298.15 +7203.60609-3.7427303*T; 6000 N !
 FUNCTION L04ALNI   298.15 +0.0; 6000 N !
 FUNCTION GB2ALTA   298.15 -8656+1.5*T; 6000 N !
 FUNCTION U1ALTA    298.15 +3000; 6000 N !
 FUNCTION L14ALTA   298.15 +0.0; 6000 N !
 FUNCTION L04ALTA   298.15 +0.0; 6000 N !
 FUNCTION U1ALTI    298.15 +3570.1253; 6000 N !
 FUNCTION L14ALTI   298.15 +0.0; 6000 N !
 FUNCTION L04ALTI   298.15 +0.0; 6000 N !
 FUNCTION UBALW     298.15 +.125*B2ALW#-.125*LB2ALW#; 6000 N !
 FUNCTION U1ALW     298.15 +0.0; 6000 N !
 FUNCTION L14ALW    298.15 +0.0; 6000 N !
 FUNCTION L04ALW    298.15 +0.0; 6000 N !
 FUNCTION GB2CONI   298.15 +4*UBCONI1#; 6000 N !
 FUNCTION U1CONI    298.15 +0.0; 6000 N !
 FUNCTION L14CONI   298.15 +0.0; 6000 N !
 FUNCTION L04CONI   298.15 +0.0; 6000 N !
 FUNCTION U1COTA    298.15 -13455; 6000 N !
 FUNCTION L14COTA   298.15 +0.0; 6000 N !
 FUNCTION L04COTA   298.15 +0.0; 6000 N !
 FUNCTION U1COTI    298.15 -19600+6.8*T; 6000 N !
 FUNCTION TCU1COTI  298.15 -1046.6667; 6000 N !
 FUNCTION L14COTI   298.15 -1000+.6*T; 6000 N !
 FUNCTION L04COTI   298.15 +0.0; 6000 N !
 FUNCTION UBCOW     298.15 +.125*B2COW#-.125*LB2COW#; 6000 N !
 FUNCTION U1COW     298.15 -7439.5; 6000 N !
 FUNCTION L14COW    298.15 +0.0; 6000 N !
 FUNCTION L04COW    298.15 +0.0; 6000 N !
 FUNCTION U1NITA    298.15 +0.0; 6000 N !
 FUNCTION L14NITA   298.15 +0.0; 6000 N !
 FUNCTION L04NITA   298.15 +0.0; 6000 N !
 FUNCTION U1NITI    298.15 -8562+4.1*T; 6000 N !
 FUNCTION L14NITI   298.15 -5408; 6000 N !
 FUNCTION L04NITI   298.15 +0.0; 6000 N !
 FUNCTION GDHCNI    298.15 +.5*GHCPNI#+.5*GHSERNI#; 6000 N !
 FUNCTION GDHCTI    298.15 +.5*GHSERTI#+.5*GFCCTI#; 6000 N !
 FUNCTION GLAVNI    298.15 +GHSERNI#+DGLAV#; 6000 N !
 FUNCTION GLAVTI    298.15 +GHSERTI#+DGLAV#; 6000 N !
 FUNCTION GTI2NI    298.15 -27514.218+2.85345219*T+.333333*GHSERNI#
     +.666667*GHSERTI#; 6000 N !
 FUNCTION U1NIW     298.15 -500; 6000 N !
 FUNCTION L14NIW    298.15 +0.0; 6000 N !
 FUNCTION L04NIW    298.15 +0.0; 6000 N !
 FUNCTION U1TATI    298.15 +0.0; 6000 N !
 FUNCTION L14TATI   298.15 +0.0; 6000 N !
 FUNCTION L04TATI   298.15 +0.0; 6000 N !
 FUNCTION A0        298.15 -54661+7.012*T-.0012958*T**2; 6000 N !
 FUNCTION A1        298.15 +29646.2-.467*T; 6000 N !
 FUNCTION B0        298.15 -3788-3.864*T-6.479E-04*T**2; 6000 N !
 FUNCTION B1        298.15 -838+2.697*T; 6000 N !
 FUNCTION U1TAW     298.15 -3662.19759; 6000 N !
 FUNCTION L14TAW    298.15 +0.0; 6000 N !
 FUNCTION L04TAW    298.15 +0.0; 6000 N !
 FUNCTION U1TIW     298.15 -802.2; 6000 N !
 FUNCTION L14TIW    298.15 +0.0; 6000 N !
 FUNCTION L04TIW    298.15 +0.0; 6000 N !
 FUNCTION BALCONI   298.15 -43538; 6000 N !
 FUNCTION ALCO3     298.15 +3*U1ALCO#; 6000 N !
 FUNCTION ALNI3     298.15 +3*U1ALNI#; 6000 N !
 FUNCTION AL3CO     298.15 +3*U1ALCO#; 6000 N !
 FUNCTION AL3NI     298.15 +3*U1ALNI#; 6000 N !
 FUNCTION AL2CO2    298.15 +4*U1ALCO#; 6000 N !
 FUNCTION AL2NI2    298.15 +4*U1ALNI#; 6000 N !
 FUNCTION AL2CONI   298.15 +2*U1ALCO#+2*U1ALNI#+U1CONI#+U3ALCONI#; 6000 N !
 FUNCTION ALCONI2   298.15 +U1ALCO#+2*U1ALNI#+2*U1CONI#+U1ALCONI#; 6000 N !
 FUNCTION ALCO2NI   298.15 +2*U1ALCO#+U1ALNI#+2*U1CONI#+U2ALCONI#; 6000 N !
 FUNCTION CONI3     298.15 +3*U1CONI#; 6000 N !
 FUNCTION CO3NI     298.15 +3*U1CONI#; 6000 N !
 FUNCTION CO2NI2    298.15 +4*U1CONI#; 6000 N !
 FUNCTION ALTA3     298.15 +3*U1ALTA#; 6000 N !
 FUNCTION AL3TA     298.15 +3*U1ALTA#; 6000 N !
 FUNCTION AL2TA2    298.15 +4*U1ALTA#; 6000 N !
 FUNCTION AL2COTA   298.15 +2*U1ALCO#+2*U1ALTA#+U1COTA#+U3ALCOTA#; 6000 N !
 FUNCTION ALCOTA2   298.15 +U1ALCO#+2*U1ALTA#+2*U1COTA#+U1ALCOTA#; 6000 N !
 FUNCTION ALCO2TA   298.15 +2*U1ALCO#+U1ALTA#+2*U1COTA#+U2ALCOTA#; 6000 N !
 FUNCTION COTA3     298.15 +3*U1COTA#; 6000 N !
 FUNCTION CO3TA     298.15 +3*U1COTA#; 6000 N !
 FUNCTION CO2TA2    298.15 +4*U1COTA#; 6000 N !
 FUNCTION ALW3      298.15 +3*U1ALW#; 6000 N !
 FUNCTION AL3W      298.15 +3*U1ALW#; 6000 N !
 FUNCTION AL2W2     298.15 +4*U1ALW#; 6000 N !
 FUNCTION AL2TAW    298.15 +2*U1ALTA#+2*U1ALW#+U1TAW#+U3ALTAW#; 6000 N !
 FUNCTION ALTAW2    298.15 +U1ALTA#+2*U1ALW#+2*U1TAW#+U1ALTAW#; 6000 N !
 FUNCTION ALTA2W    298.15 +2*U1ALTA#+U1ALW#+2*U1TAW#+U2ALTAW#; 6000 N !
 FUNCTION TAW3      298.15 +3*U1TAW#; 6000 N !
 FUNCTION TA3W      298.15 +3*U1TAW#; 6000 N !
 FUNCTION TA2W2     298.15 +4*U1TAW#; 6000 N !
 FUNCTION ALTI3     298.15 +3*U1ALTI#; 6000 N !
 FUNCTION AL3TI     298.15 +3*U1ALTI#; 6000 N !
 FUNCTION AL2TI2    298.15 +4*U1ALTI#; 6000 N !
 FUNCTION AL2TIW    298.15 +2*U1ALTI#+2*U1ALW#+U1TIW#+U3ALTIW#; 6000 N !
 FUNCTION ALTIW2    298.15 +U1ALTI#+2*U1ALW#+2*U1TIW#+U1ALTIW#; 6000 N !
 FUNCTION ALTI2W    298.15 +2*U1ALTI#+U1ALW#+2*U1TIW#+U2ALTIW#; 6000 N !
 FUNCTION TIW3      298.15 +3*U1TIW#; 6000 N !
 FUNCTION TI3W      298.15 +3*U1TIW#; 6000 N !
 FUNCTION TI2W2     298.15 +4*U1TIW#; 6000 N !
 FUNCTION AL2COTI   298.15 +2*U1ALCO#+2*U1ALTI#+U1COTI#+U3ALCOTI#; 6000 N !
 FUNCTION ALCOTI2   298.15 +U1ALCO#+2*U1ALTI#+2*U1COTI#+U1ALCOTI#; 6000 N !
 FUNCTION ALCO2TI   298.15 +2*U1ALCO#+U1ALTI#+2*U1COTI#+U2ALCOTI#; 6000 N !
 FUNCTION COTI3     298.15 +3*U1COTI#; 6000 N !
 FUNCTION CO3TI     298.15 +3*U1COTI#; 6000 N !
 FUNCTION CO2TI2    298.15 +4*U1COTI#; 6000 N !
 FUNCTION AL2COW    298.15 +2*U1ALCO#+2*U1ALW#+U1COW#+U3ALCOW#; 6000 N !
 FUNCTION ALCOW2    298.15 +U1ALCO#+2*U1ALW#+2*U1COW#+U1ALCOW#; 6000 N !
 FUNCTION ALCO2W    298.15 +2*U1ALCO#+U1ALW#+2*U1COW#+U2ALCOW#; 6000 N !
 FUNCTION COW3      298.15 +3*U1COW#; 6000 N !
 FUNCTION CO3W      298.15 +3*U1COW#; 6000 N !
 FUNCTION CO2W2     298.15 +4*U1COW#; 6000 N !
 FUNCTION AL2NIW    298.15 +2*U1ALNI#+2*U1ALW#+U1NIW#+U3ALNIW#; 6000 N !
 FUNCTION ALNIW2    298.15 +U1ALNI#+2*U1ALW#+2*U1NIW#+U1ALNIW#; 6000 N !
 FUNCTION ALNI2W    298.15 +2*U1ALNI#+U1ALW#+2*U1NIW#+U2ALNIW#; 6000 N !
 FUNCTION NIW3      298.15 +3*U1NIW#; 6000 N !
 FUNCTION NI3W      298.15 +3*U1NIW#; 6000 N !
 FUNCTION NI2W2     298.15 +4*U1NIW#; 6000 N !
 FUNCTION CO2NIW    298.15 +2*U1CONI#+2*U1COW#+U1NIW#+U3CONIW#; 6000 N !
 FUNCTION CONIW2    298.15 +U1CONI#+2*U1COW#+2*U1NIW#+U1CONIW#; 6000 N !
 FUNCTION CONI2W    298.15 +2*U1CONI#+U1COW#+2*U1NIW#+U2CONIW#; 6000 N !
 FUNCTION CO2TAW    298.15 +2*U1COTA#+2*U1COW#+U1TAW#+U3COTAW#; 6000 N !
 FUNCTION COTAW2    298.15 +U1COTA#+2*U1COW#+2*U1TAW#+U1COTAW#; 6000 N !
 FUNCTION COTA2W    298.15 +2*U1COTA#+U1COW#+2*U1TAW#+U2COTAW#; 6000 N !
 FUNCTION CO2TIW    298.15 +2*U1COTI#+2*U1COW#+U1TIW#+U3COTIW#; 6000 N !
 FUNCTION COTIW2    298.15 +U1COTI#+2*U1COW#+2*U1TIW#+U1COTIW#; 6000 N !
 FUNCTION COTI2W    298.15 +2*U1COTI#+U1COW#+2*U1TIW#+U2COTIW#; 6000 N !
 FUNCTION ALCONIW   298.15 +U1ALCO#+U1ALNI#+U1ALW#+U1CONI#+U1COW#+U1NIW#
     +UALCONIW#; 6000 N !
 FUNCTION ALCOTAW   298.15 +U1ALCO#+U1ALTA#+U1ALW#+U1COTA#+U1COW#+U1TAW#
     +UALCOTAW#; 6000 N !
 FUNCTION ALCOTIW   298.15 +U1ALCO#+U1ALTI#+U1ALW#+U1COTI#+U1COW#+U1TIW#
     +UALCOTIW#; 6000 N !
 FUNCTION UBALNI1   298.15 +.125*B2ALNI#-.125*LB2ALNI#; 6000 N !
 FUNCTION UBCONI1   298.15 +966-.416*T; 6000 N !
 FUNCTION B2ALW     298.15 +3000; 6000 N !
 FUNCTION LB2ALW    298.15 +1000; 6000 N !
 FUNCTION B2COW     298.15 -27999.9675; 6000 N !
 FUNCTION LB2COW    298.15 +1000; 6000 N !
 FUNCTION UNTIER    298.15 +TROIS#**(-1); 6000 N !
 FUNCTION UALNI     298.15 -22212.8931+4.39570389*T; 6000 N !
 FUNCTION U1ALCOW   298.15 -4231.87676; 6000 N !
 FUNCTION U2ALCOW   298.15 +13562.8692; 6000 N !
 FUNCTION U3ALCOW   298.15 +19999.7375; 6000 N !
 FUNCTION U1ALCOTA  298.15 +0.0; 6000 N !
 FUNCTION U2ALCOTA  298.15 +0.0; 6000 N !
 FUNCTION U3ALCOTA  298.15 +0.0; 6000 N !
 FUNCTION U1ALCOTI  298.15 +0.0; 6000 N !
 FUNCTION U2ALCOTI  298.15 +0.0; 6000 N !
 FUNCTION U3ALCOTI  298.15 +0.0; 6000 N !
 FUNCTION U1ALTIW   298.15 +0.0; 6000 N !
 FUNCTION U2ALTIW   298.15 +0.0; 6000 N !
 FUNCTION U3ALTIW   298.15 +0.0; 6000 N !
 FUNCTION U1ALNIW   298.15 -7650.8; 6000 N !
 FUNCTION U2ALNIW   298.15 +22217.1; 6000 N !
 FUNCTION U3ALNIW   298.15 +0.0; 6000 N !
 FUNCTION U1ALTAW   298.15 +0.0; 6000 N !
 FUNCTION U2ALTAW   298.15 +0.0; 6000 N !
 FUNCTION U3ALTAW   298.15 +0.0; 6000 N !
 FUNCTION U1ALCONI  298.15 +0.0; 6000 N !
 FUNCTION U2ALCONI  298.15 +0.0; 6000 N !
 FUNCTION U3ALCONI  298.15 +0.0; 6000 N !
 FUNCTION U1CONIW   298.15 +6000; 6000 N !
 FUNCTION U2CONIW   298.15 -4978.8; 6000 N !
 FUNCTION U3CONIW   298.15 -1996.1; 6000 N !
 FUNCTION U1COTAW   298.15 +0.0; 6000 N !
 FUNCTION U2COTAW   298.15 +0.0; 6000 N !
 FUNCTION U3COTAW   298.15 +0.0; 6000 N !
 FUNCTION U1COTIW   298.15 +0.0; 6000 N !
 FUNCTION U2COTIW   298.15 +0.0; 6000 N !
 FUNCTION U3COTIW   298.15 +0.0; 6000 N !
 FUNCTION UALCONIW  298.15 +0.0; 6000 N !
 FUNCTION UALCOTAW  298.15 +0.0; 6000 N !
 FUNCTION UALCOTIW  298.15 +0.0; 6000 N !
 FUNCTION DGLAV     298.15 +5000; 6000 N !
 FUNCTION TROIS     298.15 +3; 6000 N !
 FUNCTION UN_ASS 298.15 +0; 300 N !
 
 TYPE_DEFINITION % SEQ *!
 DEFINE_SYSTEM_DEFAULT ELEMENT 2 !
 DEFAULT_COMMAND DEF_SYS_ELEMENT VA /- !


 PHASE AL12W  %  2 12   1 !
    CONSTITUENT AL12W  :AL : W :  !

   PARAMETER G(AL12W,AL:W;0)              298.15 -90785.8+74.3705*T
  +12*GHSERAL#+GHSERWW#; 6000 N REF0 !


 PHASE AL13CO4  %  2 13   4 !
    CONSTITUENT AL13CO4  :AL : CO :  !

   PARAMETER G(AL13CO4,AL:CO;0)           298.15 -665447.3+127.7303*T
  +13*GHSERAL#+4*GHSERCO#; 6000 N REF0 !


 PHASE AL2W  %  2 2   1 !
    CONSTITUENT AL2W  :AL : W :  !

   PARAMETER G(AL2W,AL:W;0)               298.15 +20172.5-27.976*T
  +2*GHSERAL#+GHSERWW#; 6000 N REF0 !


 PHASE AL3CO  %  2 3   1 !
    CONSTITUENT AL3CO  :AL : CO :  !

   PARAMETER G(AL3CO,AL:CO;0)             298.15 -164646.8+32.1588*T
  +3*GHSERAL#+GHSERCO#; 6000 N REF0 !


 PHASE AL3NI1  %  2 .75   .25 !
    CONSTITUENT AL3NI1  :AL : NI :  !

   PARAMETER G(AL3NI1,AL:NI;0)            298.15 -48483.73+12.29913*T
  +.75*GHSERAL#+.25*GHSERNI#; 6000 N REF0 !


 PHASE AL3NI2  %  3 3   2   1 !
    CONSTITUENT AL3NI2  :AL : AL,NI% : NI,VA% :  !

   PARAMETER G(AL3NI2,AL:AL:NI;0)         298.15 +5*GBCCAL#+GBCCNI#
  -39465.978+7.89525*T; 6000 N REF0 !
   PARAMETER G(AL3NI2,AL:NI:NI;0)         298.15 +3*GBCCAL#+3*GBCCNI#
  -427191.9+79.21725*T; 6000 N REF0 !
   PARAMETER G(AL3NI2,AL:AL:VA;0)         298.15 +5*GBCCAL#+30000-3*T; 6000 
  N REF0 !
   PARAMETER G(AL3NI2,AL:NI:VA;0)         298.15 +3*GBCCAL#+2*GBCCNI#
  -357725.92+68.322*T; 6000 N REF0 !
   PARAMETER G(AL3NI2,AL:AL,NI:*;0)       298.15 -193484.18+131.79*T; 6000 N 
  REF0 !
   PARAMETER G(AL3NI2,AL:*:NI,VA;0)       298.15 -22001.7+7.0332*T; 6000 N 
  REF0 !


 PHASE AL3NI5  %  2 .375   .625 !
    CONSTITUENT AL3NI5  :AL : NI :  !

   PARAMETER G(AL3NI5,AL:NI;0)            298.15 +.375*GHSERAL#
  +.625*GHSERNI#-56452.9+7.7816*T; 6000 N REF0 !


 PHASE AL4W  %  2 4   1 !
    CONSTITUENT AL4W  :AL : W :  !

   PARAMETER G(AL4W,AL:W;0)               298.15 -74777.4+18.15*T+4*GHSERAL#
  +GHSERWW#; 6000 N REF0 !


 PHASE AL5CO2  %  2 5   2 !
    CONSTITUENT AL5CO2  :AL : CO :  !

   PARAMETER G(AL5CO2,AL:CO;0)            298.15 -322674+67.6931*T
  +5*GHSERAL#+2*GHSERCO#; 6000 N REF0 !


 PHASE AL5TI3  %  2 5   3 !
    CONSTITUENT AL5TI3  :AL : TA,TI :  !

   PARAMETER G(AL5TI3,AL:TA;0)            298.15 -200000+75*T+5*GHSERAL#
  +3*GHSERTA#; 6000 N REF0 !
   PARAMETER G(AL5TI3,AL:TI;0)            298.15 -311977+70.97*T+5*GHSERAL#
  +3*GHSERTI#; 6000 N REF0 !


 PHASE AL5W  %  2 5   1 !
    CONSTITUENT AL5W  :AL : W :  !

   PARAMETER G(AL5W,AL:W;0)               298.15 -90800+30.2425*T+5*GHSERAL#
  +GHSERWW#; 6000 N REF0 !


 PHASE AL77W23  %  2 77   23 !
    CONSTITUENT AL77W23  :AL : W :  !

   PARAMETER G(AL77W23,AL:W;0)            298.15 -360400.3-345.78*T
  +77*GHSERAL#+23*GHSERWW#; 6000 N REF0 !


 PHASE AL7W3  %  2 7   3 !
    CONSTITUENT AL7W3  :AL : W :  !

   PARAMETER G(AL7W3,AL:W;0)              298.15 +58011.1-89.5566*T
  +7*GHSERAL#+3*GHSERWW#; 6000 N REF0 !


 PHASE AL9CO2  %  2 9   2 !
    CONSTITUENT AL9CO2  :AL : CO :  !

   PARAMETER G(AL9CO2,AL:CO;0)            298.15 -331715.9+53.6391*T
  +9*GHSERAL#+2*GHSERCO#; 6000 N REF0 !


 TYPE_DEFINITION & GES A_P_D ALM3_D019 MAGNETIC  -3.0    2.80000E-01 !
 PHASE ALM3_D019  %&  2 3   1 !
    CONSTITUENT ALM3_D019  :AL,TA,TI : AL,TA,TI :  !

   PARAMETER G(ALM3_D019,AL:AL;0)         298.15 +4*GHCPAL#; 6000 N REF0 !
   PARAMETER G(ALM3_D019,TA:AL;0)         298.15 -5000+3*GHCPTA#+GHCPAL#; 
  6000 N REF0 !
   PARAMETER G(ALM3_D019,TI:AL;0)         298.15 -113676+20.833*T+GHCPAL#
  +3*GHSERTI#; 6000 N REF0 !
   PARAMETER G(ALM3_D019,AL:TA;0)         298.15 -5000+GHCPTA#+3*GHCPAL#; 
  6000 N REF0 !
   PARAMETER G(ALM3_D019,TA:TA;0)         298.15 +1000+4*GHCPTA#; 6000 N 
  REF0 !
   PARAMETER G(ALM3_D019,TI:TA;0)         298.15 +12000+3*GHSERTI#+GHCPTA#; 
  6000 N REF0 !
   PARAMETER G(ALM3_D019,AL:TI;0)         298.15 -16443+5.4*T+3*GHCPAL#
  +GHSERTI#; 6000 N REF0 !
   PARAMETER G(ALM3_D019,TA:TI;0)         298.15 +12000+3*GHCPTA#+GHSERTI#; 
  6000 N REF0 !
   PARAMETER G(ALM3_D019,TI:TI;0)         298.15 +20+4*GHSERTI#; 6000 N REF0 !
   PARAMETER G(ALM3_D019,AL,TI:AL;0)      298.15 -269912+86.338*T; 6000 N 
  REF0 !
   PARAMETER G(ALM3_D019,AL,TA,TI:AL;0)   298.15 -1100000+535*T; 6000 N REF0 !
   PARAMETER G(ALM3_D019,AL,TA,TI:AL;1)   298.15 -1700000+535*T; 6000 N REF0 !
   PARAMETER G(ALM3_D019,AL,TA,TI:AL;2)   298.15 -990000+535*T; 6000 N REF0 !
   PARAMETER G(ALM3_D019,TA,TI:AL;0)      298.15 -105000; 6000 N REF0 !
   PARAMETER G(ALM3_D019,TI:AL,TI;0)      298.15 -13704+5.318*T; 6000 N REF0 !
   PARAMETER G(ALM3_D019,TA,TI:TA;0)      298.15 +12000; 6000 N REF0 !
   PARAMETER G(ALM3_D019,TA:TA,TI;0)      298.15 +12000; 6000 N REF0 !
   PARAMETER G(ALM3_D019,TI:TA,TI;0)      298.15 +12000; 6000 N REF0 !
   PARAMETER G(ALM3_D019,TA,TI:TI;0)      298.15 +12000; 6000 N REF0 !


 TYPE_DEFINITION ' GES A_P_D BCC_A2 MAGNETIC  -1.0    4.00000E-01 !
 PHASE BCC_A2  %'  2 1   3 !
    CONSTITUENT BCC_A2  :AL,CO,NI,TA,TI,V,VA,W : VA :  !

   PARAMETER G(BCC_A2,AL:VA;0)            298.15 +GBCCAL#; 6000 N REF0 !
   PARAMETER G(BCC_A2,CO:VA;0)            298.15 +GBCCCO#; 6000 N REF0 !
   PARAMETER TC(BCC_A2,CO:VA;0)           298.15 +1450; 6000 N REF0 !
   PARAMETER BMAGN(BCC_A2,CO:VA;0)        298.15 +1.35; 6000 N REF0 !
   PARAMETER G(BCC_A2,NI:VA;0)            298.15 +GBCCNI#; 6000 N REF0 !
   PARAMETER TC(BCC_A2,NI:VA;0)           298.15 +575; 6000 N REF0 !
   PARAMETER BMAGN(BCC_A2,NI:VA;0)        298.15 +.85; 6000 N REF0 !
   PARAMETER G(BCC_A2,TA:VA;0)            298.15 +GHSERTA#; 6000 N REF0 !
   PARAMETER G(BCC_A2,TI:VA;0)            298.15 +GBCCTI#; 4000 N REF0 !
   PARAMETER G(BCC_A2,V:VA;0)             298.15 +GHSERVV#; 4000 N REF0 !
   PARAMETER G(BCC_A2,VA:VA;0)            298.15 +30*T; 6000 N REF0 !
   PARAMETER G(BCC_A2,W:VA;0)             298.15 +GHSERWW#; 6000 N REF0 !
   PARAMETER G(BCC_A2,AL,VA:VA;0)         298.15 +46912; 6000 N REF0 !
   PARAMETER G(BCC_A2,AL,CO:VA;0)         298.15 +B2ALCO#+LB2ALCO#; 6000 N 
  REF0 !
   PARAMETER G(BCC_A2,AL,CO,NI:VA;0)      298.15 -15483; 6000 N REF0 !
   PARAMETER G(BCC_A2,AL,CO,W:VA;0)       298.15 +200000; 6000 N REF0 !
   PARAMETER G(BCC_A2,AL,NI:VA;0)         298.15 +B2ALNI#+LB2ALNI#; 6000 N 
  REF0 !
   PARAMETER G(BCC_A2,AL,TA:VA;0)         298.15 -578.90066; 6000 N REF0 !
   PARAMETER G(BCC_A2,AL,TA,TI:VA;0)      298.15 -85600-50*T; 6000 N REF0 !
   PARAMETER G(BCC_A2,AL,TA,TI:VA;1)      298.15 -291500; 6000 N REF0 !
   PARAMETER G(BCC_A2,AL,TA,TI:VA;2)      298.15 -25500-50*T; 6000 N REF0 !
   PARAMETER G(BCC_A2,AL,TI:VA;0)         298.15 -132903+39.961*T; 6000 N 
  REF0 !
   PARAMETER G(BCC_A2,AL,TI:VA;1)         298.15 +4890; 6000 N REF0 !
   PARAMETER G(BCC_A2,AL,TI:VA;2)         298.15 +399.7; 6000 N REF0 !
   PARAMETER G(BCC_A2,AL,W:VA;0)          298.15 -27858.6+25.0216*T; 6000 N 
  REF0 !
   PARAMETER G(BCC_A2,AL,W:VA;1)          298.15 -6185.7; 6000 N REF0 !
   PARAMETER G(BCC_A2,CO,VA:VA;0)         298.15 +126184; 6000 N REF0 !
   PARAMETER G(BCC_A2,CO,NI:VA;0)         298.15 +2000; 6000 N REF0 !
   PARAMETER TC(BCC_A2,CO,NI:VA;0)        298.15 +556; 6000 N REF0 !
   PARAMETER TC(BCC_A2,CO,NI:VA;1)        298.15 -288; 6000 N REF0 !
   PARAMETER BMAGN(BCC_A2,CO,NI:VA;0)     298.15 +.474; 6000 N REF0 !
   PARAMETER G(BCC_A2,CO,TA:VA;0)         298.15 -71830.8+39.9728*T; 6000 N 
  REF0 !
   PARAMETER TC(BCC_A2,CO,TA:VA;0)        298.15 +1450; 6000 N REF0 !
   PARAMETER BMAGN(BCC_A2,CO,TA:VA;0)     298.15 +1.35; 6000 N REF0 !
   PARAMETER G(BCC_A2,CO,TI:VA;0)         298.15 -92966+12.38*T; 6000 N REF0 !
   PARAMETER TC(BCC_A2,CO,TI:VA;0)        298.15 -1400; 6000 N REF0 !
   PARAMETER G(BCC_A2,CO,W:VA;0)          298.15 +45184.7; 6000 N REF0 !
   PARAMETER TC(BCC_A2,CO,W:VA;0)         298.15 -3379; 6000 N REF0 !
   PARAMETER BMAGN(BCC_A2,CO,W:VA;0)      298.15 -3.146; 6000 N REF0 !
   PARAMETER G(BCC_A2,NI,VA:VA;0)         298.15 +143853.507; 6000 N REF0 !
   PARAMETER G(BCC_A2,NI,TA:VA;0)         298.15 -28415-10.613*T; 6000 N 
  REF0 !
   PARAMETER G(BCC_A2,NI,TA:VA;1)         298.15 -32471; 6000 N REF0 !
   PARAMETER G(BCC_A2,NI,TI:VA;0)         298.15 -97427.443+12.112037*T; 
  6000 N REF0 !
   PARAMETER G(BCC_A2,NI,TI:VA;1)         298.15 -32315.338; 6000 N REF0 !
   PARAMETER TC(BCC_A2,NI,TI:VA;0)        298.15 -575; 6000 N REF0 !
   PARAMETER BMAGN(BCC_A2,NI,TI:VA;0)     298.15 -.85; 6000 N REF0 !
   PARAMETER G(BCC_A2,NI,W:VA;0)          298.15 +82000; 6000 N REF0 !
   PARAMETER G(BCC_A2,TA,VA:VA;0)         298.15 +150000; 6000 N REF0 !
   PARAMETER G(BCC_A2,TA,TI:VA;0)         298.15 +12000; 6000 N REF0 !
   PARAMETER G(BCC_A2,TA,TI:VA;1)         298.15 -2500; 6000 N REF0 !
   PARAMETER G(BCC_A2,TA,W:VA;0)          298.15 +A0#; 6000 N REF0 !
   PARAMETER G(BCC_A2,TA,W:VA;1)          298.15 +A1#; 6000 N REF0 !
   PARAMETER G(BCC_A2,TI,VA:VA;0)         298.15 +80000; 6000 N REF0 !
   PARAMETER G(BCC_A2,TI,W:VA;0)          298.15 +4313+12.761*T; 6000 N REF0 !
   PARAMETER G(BCC_A2,TI,W:VA;1)          298.15 +9768-3.785*T; 6000 N REF0 !
   PARAMETER G(BCC_A2,VA,W:VA;0)          298.15 +150000; 6000 N REF0 !


 TYPE_DEFINITION ( GES A_P_D BCC_B2 MAGNETIC  -1.0    4.00000E-01 !
 PHASE BCC_B2  %(  3 .5   .5   3 !
    CONSTITUENT BCC_B2  :AL,CO,NI,TA,TI,VA,W : AL,CO,NI,TA,TI,VA,W : VA :  !

       PARA G(BCC_B2,AL:AL:VA;0) 298.15 +0; 6000 N!
   PARAMETER G(BCC_B2,CO:AL:VA;0)         298.15 +4*UBALCO#; 6000 N REF0 !
   PARAMETER TC(BCC_B2,CO:AL:VA;0)        298.15 -1400; 6000 N REF0 !
   PARAMETER G(BCC_B2,NI:AL:VA;0)         298.15 +GB2ALNI#; 6000 N REF0 !
   PARAMETER G(BCC_B2,TA:AL:VA;0)         298.15 +GB2ALTA#; 6000 N REF0 !
   PARAMETER G(BCC_B2,TI:AL:VA;0)         298.15 -17500.5; 6000 N REF0 !
       PARA G(BCC_B2,VA:AL:VA;0) 298.15 +0; 6000 N!
   PARAMETER G(BCC_B2,W:AL:VA;0)          298.15 +4*UBALW#; 6000 N REF0 !
   PARAMETER G(BCC_B2,AL:CO:VA;0)         298.15 +4*UBALCO#; 6000 N REF0 !
   PARAMETER TC(BCC_B2,AL:CO:VA;0)        298.15 -1400; 6000 N REF0 !
       PARA G(BCC_B2,CO:CO:VA;0) 298.15 +0; 6000 N!
   PARAMETER G(BCC_B2,NI:CO:VA;0)         298.15 +GB2CONI#; 6000 N REF0 !
       PARA G(BCC_B2,TA:CO:VA;0) 298.15 +0; 6000 N!
   PARAMETER G(BCC_B2,TI:CO:VA;0)         298.15 -53950+14.03*T; 6000 N REF0 !
   PARAMETER TC(BCC_B2,TI:CO:VA;0)        298.15 -500; 6000 N REF0 !
       PARA G(BCC_B2,VA:CO:VA;0) 298.15 +0; 6000 N!
   PARAMETER G(BCC_B2,W:CO:VA;0)          298.15 +4*UBCOW#; 6000 N REF0 !
   PARAMETER G(BCC_B2,AL:NI:VA;0)         298.15 +GB2ALNI#; 6000 N REF0 !
   PARAMETER G(BCC_B2,CO:NI:VA;0)         298.15 +GB2CONI#; 6000 N REF0 !
       PARA G(BCC_B2,NI:NI:VA;0) 298.15 +0; 6000 N!
       PARA G(BCC_B2,TA:NI:VA;0) 298.15 +0; 6000 N!
   PARAMETER G(BCC_B2,TI:NI:VA;0)         298.15 -33193.68+10.283967*T; 6000 
  N REF0 !
       PARA G(BCC_B2,VA:NI:VA;0) 298.15 +0; 6000 N!
       PARA G(BCC_B2,W:NI:VA;0) 298.15 +0; 6000 N!
   PARAMETER G(BCC_B2,AL:TA:VA;0)         298.15 +GB2ALTA#; 6000 N REF0 !
       PARA G(BCC_B2,CO:TA:VA;0) 298.15 +0; 6000 N!
       PARA G(BCC_B2,NI:TA:VA;0) 298.15 +0; 6000 N!
       PARA G(BCC_B2,TA:TA:VA;0) 298.15 +0; 6000 N!
       PARA G(BCC_B2,TI:TA:VA;0) 298.15 +0; 6000 N!
       PARA G(BCC_B2,VA:TA:VA;0) 298.15 +0; 6000 N!
   PARAMETER G(BCC_B2,W:TA:VA;0)          298.15 +B0#; 6000 N REF0 !
   PARAMETER G(BCC_B2,AL:TI:VA;0)         298.15 -17500.5; 6000 N REF0 !
   PARAMETER G(BCC_B2,CO:TI:VA;0)         298.15 -53950+14.03*T; 6000 N REF0 !
   PARAMETER TC(BCC_B2,CO:TI:VA;0)        298.15 -500; 6000 N REF0 !
   PARAMETER G(BCC_B2,NI:TI:VA;0)         298.15 -33193.68+10.283967*T; 6000 
  N REF0 !
       PARA G(BCC_B2,TA:TI:VA;0) 298.15 +0; 6000 N!
       PARA G(BCC_B2,TI:TI:VA;0) 298.15 +0; 6000 N!
   PARAMETER G(BCC_B2,VA:TI:VA;0)         298.15 +75000; 6000 N REF0 !
       PARA G(BCC_B2,W:TI:VA;0) 298.15 +0; 6000 N!
       PARA G(BCC_B2,AL:VA:VA;0) 298.15 +0; 6000 N!
       PARA G(BCC_B2,CO:VA:VA;0) 298.15 +0; 6000 N!
       PARA G(BCC_B2,NI:VA:VA;0) 298.15 +0; 6000 N!
       PARA G(BCC_B2,TA:VA:VA;0) 298.15 +0; 6000 N!
   PARAMETER G(BCC_B2,TI:VA:VA;0)         298.15 +75000; 6000 N REF0 !
       PARA G(BCC_B2,VA:VA:VA;0) 298.15 +0; 6000 N!
       PARA G(BCC_B2,W:VA:VA;0) 298.15 +0; 6000 N!
   PARAMETER G(BCC_B2,AL:W:VA;0)          298.15 +4*UBALW#; 6000 N REF0 !
   PARAMETER G(BCC_B2,CO:W:VA;0)          298.15 +4*UBCOW#; 6000 N REF0 !
       PARA G(BCC_B2,NI:W:VA;0) 298.15 +0; 6000 N!
   PARAMETER G(BCC_B2,TA:W:VA;0)          298.15 +B0#; 6000 N REF0 !
       PARA G(BCC_B2,TI:W:VA;0) 298.15 +0; 6000 N!
       PARA G(BCC_B2,VA:W:VA;0) 298.15 +0; 6000 N!
       PARA G(BCC_B2,W:W:VA;0) 298.15 +0; 6000 N!
   PARAMETER G(BCC_B2,AL,TA:AL:VA;0)      298.15 -GB2ALTA#; 6000 N REF0 !
   PARAMETER G(BCC_B2,AL,TI:AL:VA;0)      298.15 +6155.1; 6000 N REF0 !
   PARAMETER G(BCC_B2,AL,TI:AL:VA;1)      298.15 +6291.8; 6000 N REF0 !
   PARAMETER G(BCC_B2,AL:AL,TA:VA;0)      298.15 -GB2ALTA#; 6000 N REF0 !
   PARAMETER G(BCC_B2,AL:AL,TI:VA;0)      298.15 +6155.1; 6000 N REF0 !
   PARAMETER G(BCC_B2,AL:AL,TI:VA;1)      298.15 +6291.8; 6000 N REF0 !
   PARAMETER G(BCC_B2,CO,VA:AL:VA;0)      298.15 -28079-38.4534*T; 6000 N 
  REF0 !
   PARAMETER G(BCC_B2,CO,W:AL:VA;0)       298.15 +301865.727; 6000 N REF0 !
   PARAMETER G(BCC_B2,CO:AL,W:VA;0)       298.15 +81893.1437; 6000 N REF0 !
   PARAMETER G(BCC_B2,NI,VA:AL:VA;0)      298.15 -88983.8-17.7662*T; 6000 N 
  REF0 !
   PARAMETER G(BCC_B2,NI:AL,CO:VA;0)      298.15 +.5*BALCONI#; 6000 N REF0 !
   PARAMETER G(BCC_B2,TA:AL,TA:VA;0)      298.15 -GB2ALTA#; 6000 N REF0 !
   PARAMETER G(BCC_B2,TI:AL,TA:VA;0)      298.15 -GB2ALTA#; 6000 N REF0 !
   PARAMETER G(BCC_B2,TI:AL,TI:VA;0)      298.15 -21405.7; 6000 N REF0 !
   PARAMETER G(BCC_B2,TI:AL,TI:VA;1)      298.15 -1079.6; 6000 N REF0 !
   PARAMETER G(BCC_B2,AL,W:CO:VA;0)       298.15 +81893.1437; 6000 N REF0 !
   PARAMETER G(BCC_B2,AL:CO,VA:VA;0)      298.15 -28079-38.4534*T; 6000 N 
  REF0 !
   PARAMETER G(BCC_B2,AL:CO,W:VA;0)       298.15 +301865.727; 6000 N REF0 !
   PARAMETER G(BCC_B2,CO,TI:CO:VA;0)      298.15 -33118; 6000 N REF0 !
   PARAMETER G(BCC_B2,CO,TI:CO:VA;1)      298.15 -11630-2.57*T; 6000 N REF0 !
   PARAMETER G(BCC_B2,CO:CO,TI:VA;0)      298.15 -33118; 6000 N REF0 !
   PARAMETER G(BCC_B2,CO:CO,TI:VA;1)      298.15 -11630-2.57*T; 6000 N REF0 !
   PARAMETER G(BCC_B2,TI:CO,TI:VA;0)      298.15 +40388; 6000 N REF0 !
   PARAMETER G(BCC_B2,AL,CO:NI:VA;0)      298.15 +.5*BALCONI#; 6000 N REF0 !
   PARAMETER G(BCC_B2,AL:NI,VA:VA;0)      298.15 -88983.8-17.7662*T; 6000 N 
  REF0 !
   PARAMETER G(BCC_B2,NI,TI:NI:VA;0)      298.15 -55288.821+25.441573*T; 
  6000 N REF0 !
   PARAMETER G(BCC_B2,NI,TI:NI:VA;2)      298.15 +6010.1127+3.9597355*T; 
  6000 N REF0 !
   PARAMETER G(BCC_B2,NI:NI,TI:VA;0)      298.15 -55288.821+25.441573*T; 
  6000 N REF0 !
   PARAMETER G(BCC_B2,NI:NI,TI:VA;2)      298.15 +6010.1127+3.9597355*T; 
  6000 N REF0 !
   PARAMETER G(BCC_B2,TI:NI,TI:VA;0)      298.15 +60723.66-15.402421*T; 6000 
  N REF0 !
   PARAMETER G(BCC_B2,AL,TA:TA:VA;0)      298.15 -GB2ALTA#; 6000 N REF0 !